
;this file is automatically generated: Tue Oct 27 10:34:59 CST 2020

;declarations generated

(declare-fun oclExcludes ( Int Int) Bool)
(declare-fun Cardinality ( Int) Int)
(declare-fun type_d0466528_ea4d_48ad_ad08_765d9ccdb3d2_Class2 ( Int) Bool)
(declare-fun oclSelect ( Int Bool) Int)
(declare-fun Enum0 ( Int) Int)
(declare-fun Enum1 ( Int) Int)
(declare-fun Enum2 ( Int) Int)
(declare-fun container_ ( Int) Int)
(declare-fun class2_Class2IntAttr4 ( Int) Int)
(declare-fun class2_Class2IntAttr3 ( Int) Int)
(declare-fun oclIncludes ( Int Int) Bool)
(declare-fun obj_f44fea09_35b9_4682_b8f3_9da2153b06f8 ( Int) Int)
(declare-fun ObjAt ( Int Int) Int)

;formula(s) generated
(assert (! (forall ((c2_1 Int)(c2_2 Int)) (=> (and ( type_d0466528_ea4d_48ad_ad08_765d9ccdb3d2_Class2 c2_1 )  ( type_d0466528_ea4d_48ad_ad08_765d9ccdb3d2_Class2 c2_2 ) ) (not (= ( class2_Class2IntAttr4 ( obj_f44fea09_35b9_4682_b8f3_9da2153b06f8 c2_1 )  )  ( class2_Class2IntAttr3 ( obj_f44fea09_35b9_4682_b8f3_9da2153b06f8 c2_2 )  ) ) ))):named l0))
(assert (! (forall ((v Int)) (=> ( type_d0466528_ea4d_48ad_ad08_765d9ccdb3d2_Class2 v )  (<= ( class2_Class2IntAttr3 ( obj_f44fea09_35b9_4682_b8f3_9da2153b06f8 v )  )  13))):named l1))
(assert (exists ((o Int)) ( type_d0466528_ea4d_48ad_ad08_765d9ccdb3d2_Class2 ( obj_f44fea09_35b9_4682_b8f3_9da2153b06f8 o )  ) ))

 ;end of formula 